
Log started (V20.1.0.0) Tue Aug  9 01:05:17 2022


Problem 'pp.lp' read.
Read time = 0.00 sec. (0.00 ticks)
Version identifier: 20.1.0.0 | 2020-11-10 | 9bedb6d68
Tried aggregator 1 time.
LP Presolve eliminated 0 rows and 1 columns.
Reduced LP has 3 rows, 3 columns, and 9 nonzeros.
Presolve time = 0.00 sec. (0.00 ticks)
Initializing dual steep norms . . .

Iteration log . . .
Iteration:     1   Dual infeasibility =             0.499999

Dual simplex - Optimal:  Objective =  4.5000000000e+00
Solution time =    0.00 sec.  Iterations = 2 (2)
Deterministic time = 0.01 ticks  (6.19 ticks/sec)


Variable Name           Solution Value
x1                            4.500000
x4                            3.500000
x3                            4.500000
All other variables matching '*' are 0.
